0 2175
1 1993
2 1856
3 1708
4 1662
5 1584
6 1571
7 1569
8 1513
9 1445
10 1439
11 1389
12 1378
13 1356
14 1303
15 1302
16 1258
17 1258
18 1201
19 1188
20 1168
21 1168
22 1153
23 1136
24 1136
25 1132
26 1132
27 1128
28 1125
29 1118
30 1108
31 1106
32 1106
33 1106
34 1076
35 1076
36 1074
37 1065
38 1061
39 1046
40 1041
41 1041
42 1040
43 1026
44 1025
45 1021
46 1020
47 1020
48 1016
49 1014
50 1014
51 1013
52 1007
53 1007
54 1002
55 1002
56 999
57 999
58 999
59 997
60 995
61 995
62 995
63 995
64 995
65 992
66 992
67 989
68 989
69 989
70 989
71 985
72 985
73 985
74 985
75 985
76 985
77 983
78 983
79 981
80 981
81 981
82 981
83 981
84 981
85 981
86 981
87 981
88 981
89 981
90 981
91 981
92 981
93 981
94 981
95 981
96 981
97 981
98 981
99 981
100 981
101 981
102 981
103 981
104 981
105 981
106 981
107 981
108 981
109 981
110 981
111 981
112 981
113 981
114 981
115 981
116 981
117 981
118 981
119 981
120 981
121 981
122 981
123 981
124 981
125 981
126 981
127 981
128 981
129 981
130 981
131 981
132 981
133 981
134 981
135 981
136 981
137 981
138 981
139 981
140 981
141 981
142 981
143 981
144 981
145 981
146 981
147 981
148 981
149 981
150 981
151 981
152 981
153 981
154 981
155 981
156 981
157 981
158 981
159 981
160 981
161 981
162 981
163 981
164 981
165 981
166 981
167 981
168 981
169 981
170 981
171 981
172 981
173 981
174 981
175 981
176 981
177 981
178 981
179 981
180 981
181 981
182 981
183 981
184 981
185 981
186 981
187 981
188 981
189 981
190 981
191 981
192 981
193 981
194 981
195 981
196 981
197 981
198 981
199 981
200 981
201 981
202 981
203 981
204 981
205 981
206 981
207 981
208 981
209 981
210 981
211 981
212 981
213 981
214 981
215 981
216 981
217 981
218 981
219 981
220 981
221 981
222 981
223 981
224 981
225 981
226 981
227 981
228 981
229 981
230 981
231 981
232 981
233 981
234 981
235 981
236 981
237 981
238 981
239 981
240 981
241 981
242 981
243 981
244 981
245 981
246 981
247 981
248 981
249 981
250 981
251 981
252 981
253 981
254 981
255 981
256 981
257 981
258 981
259 981
260 981
261 981
262 981
263 981
264 981
265 981
266 981
267 981
268 981
269 981
270 981
271 981
272 981
273 981
274 981
275 981
276 981
277 981
278 981
279 981
280 981
281 981
282 981
283 981
284 981
285 981
286 981
287 981
288 981
289 981
290 981
291 981
292 981
293 981
294 981
295 981
296 981
297 981
298 981
299 981
300 981
301 981
302 981
303 981
304 981
305 981
306 981
307 981
308 981
309 981
310 981
311 981
312 981
313 981
314 981
315 981
316 981
317 981
318 981
319 981
320 981
321 981
322 981
323 981
324 981
325 981
326 981
327 981
328 981
329 981
330 981
331 981
332 981
333 981
334 981
335 981
336 981
337 981
338 981
339 981
340 981
341 981
342 981
343 981
344 981
345 981
346 981
347 981
348 981
349 981
350 981
351 981
352 981
353 981
354 981
355 981
356 981
357 981
358 981
359 981
360 981
361 981
362 981
363 981
364 981
365 981
366 981
367 981
368 981
369 981
370 981
371 981
372 981
373 981
374 981
375 981
376 981
377 981
378 981
379 981
380 981
381 981
382 981
383 981
384 981
385 981
386 981
387 981
388 981
389 981
390 981
391 981
392 981
393 981
394 981
395 981
396 981
397 981
398 981
399 981
400 981
401 981
402 981
403 981
404 981
405 981
406 981
407 981
408 981
409 981
410 981
411 981
412 981
413 981
414 981
415 981
416 981
417 981
418 981
419 981
420 981
421 981
422 981
423 981
424 981
425 981
426 981
427 981
428 981
429 981
430 981
431 981
432 981
433 981
434 981
435 981
436 981
437 981
438 981
439 981
440 981
441 981
442 981
443 981
444 981
445 981
446 981
447 981
448 981
449 981
450 981
451 981
452 981
453 981
454 981
455 981
456 981
457 981
458 981
459 981
460 981
461 981
462 981
463 981
464 981
465 981
466 981
467 981
468 981
469 981
470 981
471 981
472 981
473 981
474 981
475 981
476 981
477 981
478 981
479 981
480 981
481 981
482 981
483 981
484 981
485 981
486 981
487 981
488 981
489 981
490 981
491 981
492 981
493 981
494 981
495 981
496 981
497 981
498 981
499 981
500 981
501 981
502 981
503 981
504 981
505 981
506 981
507 981
508 981
509 981
510 981
511 981
512 981
513 981
514 981
515 981
516 981
517 981
518 981
519 981
520 981
521 981
522 981
523 981
524 981
525 981
526 981
527 981
528 981
529 981
530 981
531 981
532 981
533 981
534 981
535 981
536 981
537 981
538 981
539 981
540 981
541 981
542 981
543 981
544 981
545 981
546 981
547 981
548 981
549 981
550 981
551 981
552 981
553 981
554 981
555 981
556 981
557 981
558 981
559 981
560 981
561 981
562 981
563 981
564 981
565 981
566 981
567 981
568 981
569 981
570 981
571 981
572 981
573 981
574 981
575 981
576 981
577 981
578 981
579 981
580 981
581 981
582 981
583 981
584 981
585 981
586 981
587 981
588 981
589 981
590 981
591 981
592 981
593 981
594 981
595 981
596 981
597 981
598 981
599 981
600 981
601 981
602 981
603 981
604 981
605 981
606 981
607 981
608 981
609 981
610 981
611 981
612 981
613 981
614 981
615 981
616 981
617 981
618 981
619 981
620 981
621 981
622 981
623 981
624 981
625 981
626 981
627 981
628 981
629 981
630 981
631 981
632 981
633 981
634 981
635 981
636 981
637 981
638 981
639 981
640 981
641 981
642 981
643 981
644 981
645 981
646 981
647 981
648 981
649 981
650 981
651 981
652 981
653 981
654 981
655 981
656 981
657 981
658 981
659 981
660 981
661 981
662 981
663 981
664 981
665 981
666 981
667 981
668 981
669 981
670 981
671 981
672 981
673 981
674 981
675 981
676 981
677 981
678 981
679 981
680 981
681 981
682 981
683 981
684 981
685 981
686 981
687 981
688 981
689 981
690 981
691 981
692 981
693 981
694 981
695 981
696 981
697 981
698 981
699 981
700 981
701 981
702 981
703 981
704 981
705 981
706 981
707 981
708 981
709 981
710 981
711 981
712 981
713 981
714 981
715 981
716 981
717 981
718 981
719 981
720 981
721 981
722 981
723 981
724 981
725 981
726 981
727 981
728 981
729 981
730 981
731 981
732 981
733 981
734 981
735 981
736 981
737 981
738 981
739 981
740 981
741 981
742 981
743 981
744 981
745 981
746 981
747 981
748 981
749 981
750 981
751 981
752 981
753 981
754 981
755 981
756 981
757 981
758 981
759 981
760 981
761 981
762 981
763 981
764 981
765 981
766 981
767 981
768 981
769 981
770 981
771 981
772 981
773 981
774 981
775 981
776 981
777 981
778 981
779 981
780 981
781 981
782 981
783 981
784 981
785 981
786 981
787 981
788 981
789 981
790 981
791 981
792 981
793 981
794 981
795 981
796 981
797 981
798 981
799 981
800 981
801 981
802 981
803 981
804 981
805 981
806 981
807 981
808 981
809 981
810 981
811 981
812 981
813 981
814 981
815 981
816 981
817 981
818 981
819 981
820 981
821 981
822 981
823 981
824 981
825 981
826 981
827 981
828 981
829 981
830 981
831 981
832 981
833 981
834 981
835 981
836 981
837 981
838 981
839 981
840 981
841 981
842 981
843 981
844 981
845 981
846 981
847 981
848 981
849 981
850 981
851 981
852 981
853 981
854 981
855 981
856 981
857 981
858 981
859 981
860 981
861 981
862 981
863 981
864 981
865 981
866 981
867 981
868 981
869 981
870 981
871 981
872 981
873 981
874 981
875 981
876 981
877 981
878 981
879 981
880 981
881 981
882 981
883 981
884 981
885 981
886 981
887 981
888 981
889 981
890 981
891 981
892 981
893 981
894 981
895 981
896 981
897 981
898 981
899 981
900 981
901 981
902 981
903 981
904 981
905 981
906 981
907 981
908 981
909 981
910 981
911 981
912 981
913 981
914 981
915 981
916 981
917 981
918 981
919 981
920 981
921 981
922 981
923 981
924 981
925 981
926 981
927 981
928 981
929 981
930 981
931 981
932 981
933 981
934 981
935 981
936 981
937 981
938 981
939 981
940 981
941 981
942 981
943 981
944 981
945 981
946 981
947 981
948 981
949 981
950 981
951 981
952 981
953 981
954 981
955 981
956 981
957 981
958 981
959 981
960 981
961 981
962 981
963 981
964 981
965 981
966 981
967 981
968 981
969 981
970 981
971 981
972 981
973 981
974 981
975 981
976 981
977 981
978 981
979 981
980 981
981 981
982 981
983 981
984 981
985 981
986 981
987 981
988 981
989 981
990 981
991 981
992 981
993 981
994 981
995 981
996 981
997 981
998 981
999 981
Best: [[27,8,14,3,4,24,7],
       [25,19,9,17,13],
       [21,6,30,23,10,12,5,29,15],
       [28,16,11,26],
       [31,18,20,32,22,2]], fitness: 981
